DIMACS2
40 293 291 99 231 56 305 277 310 79 30 302 203 227 281 64 257 243 89 253 222 214 26 267 298 154 259 141 292 94 197 52 127 228 171 280 16 36 106 76 268
p edge 320 1210
e 0 157 1.0
e 1 161 1.0
e 2 108 1.0
e 2 0 1.0
e 3 315 2.0
e 4 274 1.0
e 5 26 38.0
e 6 164 1.0
e 7 244 2.0
e 8 71 1.0
e 9 5 1.0
e 10 81 1.0
e 10 2 1.0
e 11 140 1.0
e 12 229 1.0
e 12 10 2.0
e 13 194 1.0
e 14 122 1.0
e 15 70 1.0
e 16 278 28.0
e 16 93 10.0
e 16 128 31.0
e 16 307 40.0
e 16 41 13.0
e 16 58 42.0
e 16 189 18.0
e 16 286 20.0
e 16 160 20.0
e 16 99 25.0
e 16 199 4.0
e 16 2 28.0
e 16 242 31.0
e 16 146 29.0
e 16 104 13.0
e 16 186 2.0
e 16 270 21.0
e 16 220 49.0
e 16 254 31.0
e 16 119 5.0
e 16 276 11.0
e 17 52 11.0
e 18 295 3.0
e 18 192 5.0
e 19 146 1.0
e 20 128 1.0
e 21 85 1.0
e 22 121 1.0
e 23 285 1.0
e 24 169 3.0
e 24 256 5.0
e 24 315 1.0
e 25 220 1.0
e 26 91 18.0
e 26 3 17.0
e 26 196 28.0
e 26 176 8.0
e 26 86 13.0
e 26 301 20.0
e 26 58 47.0
e 26 41 5.0
e 26 205 32.0
e 26 190 42.0
e 26 77 22.0
e 26 33 29.0
e 26 242 10.0
e 26 49 17.0
e 26 102 28.0
e 26 134 36.0
e 26 258 33.0
e 26 274 5.0
e 26 210 30.0
e 26 132 3.0
e 26 305 49.0
e 26 28 4.0
e 26 188 2.0
e 27 158 1.0
e 28 223 1.0
e 29 10 3.0
e 29 256 5.0
e 29 305 46.0
e 30 257 42.0
e 30 155 13.0
e 30 179 25.0
e 30 194 33.0
e 30 206 47.0
e 30 162 44.0
e 30 98 29.0
e 30 284 12.0
e 30 312 28.0
e 30 266 21.0
e 30 275 23.0
e 30 45 10.0
e 30 229 48.0
e 30 163 29.0
e 30 109 8.0
e 30 253 33.0
e 30 219 13.0
e 30 33 13.0
e 30 16 35.0
e 30 144 4.0
e 30 241 1.0
e 30 88 19.0
e 31 204 1.0
e 32 15 1.0
e 33 224 1.0
e 34 146 2.0
e 35 13 1.0
e 36 17 3.0
e 36 226 2.0
e 36 199 23.0
e 36 296 37.0
e 36 213 27.0
e 36 258 43.0
e 36 200 21.0
e 36 12 7.0
e 36 281 21.0
e 36 268 39.0
e 36 231 38.0
e 36 318 1.0
e 36 290 33.0
e 36 182 40.0
e 36 8 16.0
e 36 220 4.0
e 36 130 19.0
e 36 163 19.0
e 36 247 17.0
e 36 273 40.0
e 36 107 48.0
e 36 75 35.0
e 36 294 37.0
e 36 117 14.0
e 36 38 45.0
e 37 178 1.0
e 38 249 2.0
e 39 144 1.0
e 40 99 35.0
e 40 215 2.0
e 41 288 1.0
e 42 39 1.0
e 43 252 1.0
e 44 255 1.0
e 45 299 1.0
e 46 114 1.0
e 47 206 1.0
e 47 287 2.0
e 48 285 1.0
e 49 246 1.0
e 50 190 2.0
e 51 188 2.0
e 51 106 49.0
e 52 29 32.0
e 52 113 25.0
e 52 135 15.0
e 52 36 35.0
e 52 222 37.0
e 52 136 46.0
e 52 100 16.0
e 52 208 44.0
e 52 74 15.0
e 52 21 31.0
e 52 131 29.0
e 52 259 26.0
e 52 56 25.0
e 52 132 39.0
e 52 41 48.0
e 52 1 26.0
e 52 163 41.0
e 52 299 8.0
e 52 32 41.0
e 52 125 19.0
e 52 143 16.0
e 53 52 17.0
e 54 45 2.0
e 54 114 2.0
e 55 147 2.0
e 56 197 46.0
e 56 175 13.0
e 56 97 26.0
e 56 13 21.0
e 56 294 14.0
e 56 135 26.0
e 56 161 38.0
e 56 257 19.0
e 56 159 19.0
e 56 186 26.0
e 56 111 2.0
e 56 4 36.0
e 56 311 6.0
e 56 228 14.0
e 56 199 6.0
e 56 25 18.0
e 56 60 20.0
e 56 57 12.0
e 56 256 6.0
e 56 53 17.0
e 56 83 31.0
e 56 41 24.0
e 57 42 1.0
e 58 306 1.0
e 59 255 1.0
e 60 245 2.0
e 61 181 2.0
e 62 55 1.0
e 63 257 24.0
e 64 39 45.0
e 64 190 30.0
e 64 15 16.0
e 64 215 44.0
e 64 160 21.0
e 64 22 13.0
e 64 130 37.0
e 64 191 12.0
e 64 224 34.0
e 64 232 20.0
e 64 97 30.0
e 64 318 10.0
e 64 212 20.0
e 64 1 8.0
e 64 275 8.0
e 64 80 20.0
e 64 23 17.0
e 64 306 47.0
e 64 50 47.0
e 64 233 36.0
e 64 246 10.0
e 64 17 30.0
e 64 234 8.0
e 64 211 40.0
e 65 242 2.0
e 66 244 1.0
e 67 30 2.0
e 68 274 1.0
e 68 170 1.0
e 69 63 1.0
e 69 166 1.0
e 70 30 22.0
e 71 170 1.0
e 72 52 3.0
e 73 131 2.0
e 73 259 47.0
e 74 256 1.0
e 75 16 25.0
e 76 127 9.0
e 76 208 31.0
e 76 3 30.0
e 76 253 6.0
e 76 195 9.0
e 76 34 43.0
e 76 214 46.0
e 76 33 4.0
e 76 35 6.0
e 76 49 6.0
e 76 142 37.0
e 76 48 13.0
e 76 231 27.0
e 76 182 46.0
e 76 297 49.0
e 76 160 23.0
e 76 114 16.0
e 76 98 34.0
e 76 79 4.0
e 76 242 12.0
e 76 239 26.0
e 76 199 14.0
e 76 62 6.0
e 76 53 39.0
e 76 91 34.0
e 77 24 4.0
e 78 141 16.0
e 79 198 1.0
e 79 17 44.0
e 79 196 44.0
e 79 104 26.0
e 79 199 49.0
e 79 263 30.0
e 79 30 21.0
e 79 292 1.0
e 79 133 36.0
e 79 126 21.0
e 79 307 45.0
e 79 147 47.0
e 79 98 38.0
e 79 35 13.0
e 79 282 10.0
e 79 215 43.0
e 79 92 18.0
e 79 154 38.0
e 79 77 47.0
e 79 155 7.0
e 79 105 17.0
e 79 164 15.0
e 79 294 13.0
e 80 94 19.0
e 81 290 1.0
e 82 271 3.0
e 83 95 2.0
e 84 123 1.0
e 85 236 2.0
e 86 121 1.0
e 87 206 1.0
e 88 26 27.0
e 89 25 1.0
e 89 131 33.0
e 89 233 34.0
e 89 184 6.0
e 89 242 12.0
e 89 224 33.0
e 89 21 37.0
e 89 2 19.0
e 89 97 8.0
e 89 199 49.0
e 89 22 10.0
e 89 185 32.0
e 89 268 15.0
e 89 231 18.0
e 89 113 24.0
e 89 117 5.0
e 89 197 43.0
e 89 83 45.0
e 89 49 48.0
e 89 259 36.0
e 89 9 25.0
e 89 62 14.0
e 90 223 1.0
e 91 120 1.0
e 92 102 1.0
e 93 106 44.0
e 93 314 1.0
e 93 289 1.0
e 94 175 10.0
e 94 42 13.0
e 94 298 45.0
e 94 139 39.0
e 94 93 22.0
e 94 209 30.0
e 94 313 26.0
e 94 317 24.0
e 94 19 12.0
e 94 157 39.0
e 94 104 8.0
e 94 180 39.0
e 94 65 28.0
e 94 166 36.0
e 94 286 25.0
e 94 186 16.0
e 94 163 44.0
e 94 307 19.0
e 94 190 30.0
e 94 279 8.0
e 94 105 39.0
e 94 140 25.0
e 94 204 20.0
e 94 277 17.0
e 95 161 1.0
e 96 89 32.0
e 97 204 1.0
e 98 209 1.0
e 99 34 12.0
e 99 317 32.0
e 99 46 7.0
e 99 192 35.0
e 99 11 4.0
e 99 290 4.0
e 99 56 8.0
e 99 138 37.0
e 99 67 32.0
e 99 54 11.0
e 99 139 39.0
e 99 240 38.0
e 99 268 41.0
e 99 84 28.0
e 99 195 14.0
e 99 269 48.0
e 99 153 35.0
e 99 199 47.0
e 99 217 43.0
e 99 86 23.0
e 99 9 44.0
e 99 201 31.0
e 99 69 7.0
e 100 313 1.0
e 101 122 1.0
e 102 13 1.0
e 103 215 1.0
e 104 285 1.0
e 105 123 1.0
e 106 78 24.0
e 106 52 15.0
e 106 94 28.0
e 106 162 49.0
e 106 261 11.0
e 106 309 41.0
e 106 244 41.0
e 106 269 29.0
e 106 39 49.0
e 106 15 46.0
e 106 128 20.0
e 106 121 17.0
e 106 225 48.0
e 106 122 12.0
e 106 278 46.0
e 106 149 42.0
e 106 270 13.0
e 106 55 14.0
e 106 124 1.0
e 106 250 41.0
e 106 179 5.0
e 106 70 21.0
e 107 156 1.0
e 108 250 1.0
e 109 102 1.0
e 110 167 2.0
e 111 236 1.0
e 112 60 1.0
e 112 116 2.0
e 113 204 1.0
e 114 306 1.0
e 115 190 1.0
e 116 209 2.0
e 117 33 2.0
e 118 111 1.0
e 119 109 1.0
e 120 149 1.0
e 121 12 1.0
e 122 136 1.0
e 124 274 2.0
e 125 102 1.0
e 126 89 48.0
e 127 204 16.0
e 127 22 1.0
e 127 54 11.0
e 127 293 40.0
e 127 111 39.0
e 127 299 45.0
e 127 262 6.0
e 127 161 36.0
e 127 198 19.0
e 127 159 35.0
e 127 199 9.0
e 127 241 14.0
e 127 282 38.0
e 127 82 37.0
e 127 224 2.0
e 127 58 28.0
e 127 83 24.0
e 127 156 29.0
e 127 131 48.0
e 127 315 13.0
e 127 33 16.0
e 127 158 17.0
e 127 194 19.0
e 127 316 22.0
e 128 98 1.0
e 129 198 1.0
e 130 17 1.0
e 131 220 2.0
e 132 206 1.0
e 133 21 1.0
e 134 39 3.0
e 135 125 1.0
e 136 128 1.0
e 137 222 14.0
e 138 206 1.0
e 139 144 1.0
e 140 304 1.0
e 141 233 48.0
e 141 253 6.0
e 141 1 33.0
e 141 52 2.0
e 141 104 16.0
e 141 20 5.0
e 141 2 38.0
e 141 59 17.0
e 141 274 46.0
e 141 142 26.0
e 141 158 41.0
e 141 292 45.0
e 141 125 49.0
e 141 34 35.0
e 141 26 4.0
e 141 318 7.0
e 141 115 9.0
e 141 286 29.0
e 141 69 16.0
e 141 100 49.0
e 141 35 6.0
e 141 266 26.0
e 141 246 29.0
e 141 261 29.0
e 142 240 1.0
e 143 217 2.0
e 144 294 1.0
e 145 230 1.0
e 146 190 1.0
e 147 56 1.0
e 148 192 3.0
e 149 188 2.0
e 150 144 2.0
e 151 143 1.0
e 151 163 1.0
e 152 171 27.0
e 152 245 8.0
e 152 292 42.0
e 152 311 4.0
e 152 59 1.0
e 152 78 2.0
e 152 34 9.0
e 153 223 1.0
e 154 32 27.0
e 154 126 18.0
e 154 200 17.0
e 154 33 8.0
e 154 229 9.0
e 154 278 25.0
e 154 4 4.0
e 154 231 2.0
e 154 282 5.0
e 154 14 3.0
e 154 173 44.0
e 154 5 9.0
e 154 241 38.0
e 154 189 25.0
e 154 52 44.0
e 154 20 37.0
e 154 277 30.0
e 154 38 37.0
e 154 276 42.0
e 154 248 31.0
e 154 139 46.0
e 154 6 44.0
e 155 18 2.0
e 156 126 2.0
e 157 311 1.0
e 158 148 1.0
e 159 304 1.0
e 160 174 1.0
e 161 120 2.0
e 162 259 40.0
e 163 80 5.0
e 164 230 2.0
e 165 10 1.0
e 166 312 1.0
e 167 299 1.0
e 168 201 2.0
e 169 80 1.0
e 170 56 20.0
e 171 173 35.0
e 171 276 33.0
e 171 282 12.0
e 171 284 19.0
e 171 144 10.0
e 171 125 27.0
e 171 3 39.0
e 171 101 31.0
e 171 52 40.0
e 171 19 41.0
e 171 145 11.0
e 171 275 27.0
e 171 78 18.0
e 171 43 20.0
e 171 224 6.0
e 171 200 24.0
e 171 83 9.0
e 171 7 46.0
e 171 294 11.0
e 171 225 3.0
e 171 140 7.0
e 171 310 44.0
e 171 176 43.0
e 172 306 2.0
e 172 121 1.0
e 173 246 1.0
e 174 195 1.0
e 175 311 9.0
e 175 254 5.0
e 175 299 9.0
e 175 283 8.0
e 175 16 41.0
e 176 30 30.0
e 177 270 2.0
e 178 35 1.0
e 179 3 2.0
e 180 223 1.0
e 181 312 1.0
e 182 260 1.0
e 183 275 5.0
e 184 79 38.0
e 185 239 1.0
e 186 108 1.0
e 187 197 45.0
e 187 201 2.0
e 188 196 1.0
e 189 106 41.0
e 189 222 25.0
e 190 154 28.0
e 191 105 2.0
e 192 314 3.0
e 193 313 2.0
e 193 200 1.0
e 194 143 1.0
e 195 150 2.0
e 196 248 1.0
e 197 182 37.0
e 197 193 24.0
e 197 176 37.0
e 197 73 21.0
e 197 136 32.0
e 197 201 9.0
e 197 206 20.0
e 197 269 23.0
e 197 1 27.0
e 197 248 41.0
e 197 270 11.0
e 197 186 15.0
e 197 36 10.0
e 197 34 47.0
e 197 118 12.0
e 197 75 8.0
e 197 29 18.0
e 197 114 29.0
e 197 275 24.0
e 197 195 35.0
e 197 280 38.0
e 197 127 42.0
e 198 287 1.0
e 199 166 3.0
e 200 14 1.0
e 201 16 21.0
e 202 291 10.0
e 202 42 2.0
e 203 154 37.0
e 203 159 5.0
e 203 155 11.0
e 203 81 49.0
e 203 93 26.0
e 203 214 3.0
e 203 267 33.0
e 203 185 12.0
e 203 179 20.0
e 203 0 27.0
e 203 295 40.0
e 203 36 15.0
e 203 240 39.0
e 203 89 28.0
e 203 201 37.0
e 203 316 16.0
e 203 257 44.0
e 203 266 47.0
e 203 138 32.0
e 203 135 7.0
e 203 142 24.0
e 203 164 13.0
e 203 262 35.0
e 203 208 49.0
e 203 293 16.0
e 204 16 13.0
e 205 1 1.0
e 206 237 1.0
e 207 123 1.0
e 208 64 38.0
e 208 237 4.0
e 208 315 7.0
e 208 124 1.0
e 209 134 1.0
e 210 282 1.0
e 210 256 5.0
e 211 66 4.0
e 211 132 2.0
e 212 215 2.0
e 213 110 2.0
e 214 78 22.0
e 214 30 18.0
e 214 288 13.0
e 214 64 20.0
e 214 65 11.0
e 214 207 47.0
e 214 187 13.0
e 214 224 14.0
e 214 100 36.0
e 214 18 42.0
e 214 116 19.0
e 214 277 5.0
e 214 66 21.0
e 214 216 2.0
e 214 258 45.0
e 214 6 18.0
e 214 208 11.0
e 214 254 7.0
e 214 136 45.0
e 214 291 25.0
e 214 262 31.0
e 214 192 17.0
e 214 114 24.0
e 215 195 1.0
e 216 158 1.0
e 217 288 1.0
e 218 194 1.0
e 219 283 1.0
e 220 126 1.0
e 221 117 1.0
e 222 96 14.0
e 222 313 36.0
e 222 147 42.0
e 222 120 9.0
e 222 3 10.0
e 222 257 7.0
e 222 16 18.0
e 222 66 25.0
e 222 217 12.0
e 222 67 17.0
e 222 115 9.0
e 222 134 11.0
e 222 265 11.0
e 222 92 19.0
e 222 99 49.0
e 222 251 16.0
e 222 107 49.0
e 222 159 15.0
e 222 15 10.0
e 222 177 43.0
e 222 6 15.0
e 223 63 2.0
e 224 277 44.0
e 225 72 1.0
e 226 65 1.0
e 227 308 40.0
e 227 21 31.0
e 227 115 19.0
e 227 141 44.0
e 227 155 46.0
e 227 244 26.0
e 227 259 31.0
e 227 45 46.0
e 227 36 31.0
e 227 309 36.0
e 227 291 42.0
e 227 3 36.0
e 227 6 4.0
e 227 179 19.0
e 227 103 43.0
e 227 37 27.0
e 227 150 33.0
e 227 119 45.0
e 227 130 10.0
e 227 132 27.0
e 227 31 38.0
e 227 220 35.0
e 227 129 22.0
e 227 154 15.0
e 227 257 35.0
e 228 91 17.0
e 228 66 31.0
e 228 164 32.0
e 228 152 3.0
e 228 299 11.0
e 228 212 31.0
e 228 227 6.0
e 228 265 24.0
e 228 158 9.0
e 228 284 15.0
e 228 234 31.0
e 228 250 33.0
e 228 16 18.0
e 228 82 44.0
e 228 221 33.0
e 228 41 43.0
e 228 275 24.0
e 228 260 26.0
e 228 23 10.0
e 228 88 32.0
e 228 237 37.0
e 228 185 22.0
e 228 189 33.0
e 229 123 1.0
e 230 162 1.0
e 231 103 44.0
e 231 39 39.0
e 231 122 19.0
e 231 19 20.0
e 231 32 13.0
e 231 182 34.0
e 231 155 28.0
e 231 149 40.0
e 231 184 27.0
e 231 175 30.0
e 231 18 37.0
e 231 275 45.0
e 231 105 36.0
e 231 10 44.0
e 231 37 19.0
e 231 6 12.0
e 231 21 3.0
e 231 207 25.0
e 231 228 26.0
e 231 285 2.0
e 231 110 22.0
e 232 188 2.0
e 233 254 1.0
e 234 212 2.0
e 235 263 1.0
e 236 243 4.0
e 237 19 1.0
e 238 53 1.0
e 239 258 1.0
e 240 5 1.0
e 241 174 3.0
e 242 107 1.0
e 243 228 48.0
e 243 197 27.0
e 243 202 15.0
e 243 0 4.0
e 243 83 39.0
e 243 171 9.0
e 243 257 6.0
e 243 232 46.0
e 243 30 32.0
e 243 214 1.0
e 243 203 6.0
e 243 18 4.0
e 243 314 21.0
e 243 38 14.0
e 243 89 27.0
e 243 261 45.0
e 243 221 5.0
e 243 272 36.0
e 243 86 41.0
e 243 84 43.0
e 243 159 4.0
e 243 252 19.0
e 244 55 2.0
e 245 235 1.0
e 246 222 26.0
e 247 97 2.0
e 248 145 2.0
e 249 255 1.0
e 250 126 1.0
e 251 310 44.0
e 252 18 5.0
e 253 38 35.0
e 253 24 26.0
e 253 284 47.0
e 253 216 47.0
e 253 174 46.0
e 253 217 38.0
e 253 187 48.0
e 253 99 38.0
e 253 221 29.0
e 253 229 7.0
e 253 227 4.0
e 253 37 25.0
e 253 225 6.0
e 253 41 18.0
e 253 137 43.0
e 253 47 27.0
e 253 254 20.0
e 253 255 12.0
e 253 249 13.0
e 253 89 6.0
e 253 197 1.0
e 253 226 7.0
e 254 22 2.0
e 255 82 1.0
e 256 111 1.0
e 257 128 48.0
e 257 108 29.0
e 257 310 22.0
e 257 187 12.0
e 257 46 20.0
e 257 292 10.0
e 257 283 39.0
e 257 192 11.0
e 257 4 21.0
e 257 268 15.0
e 257 286 15.0
e 257 197 5.0
e 257 31 38.0
e 257 210 29.0
e 257 47 14.0
e 257 69 47.0
e 257 25 29.0
e 257 271 28.0
e 258 176 1.0
e 259 289 28.0
e 259 226 12.0
e 259 15 23.0
e 259 152 48.0
e 259 300 24.0
e 259 175 16.0
e 259 4 34.0
e 259 294 10.0
e 259 75 9.0
e 259 264 41.0
e 259 219 5.0
e 259 277 19.0
e 259 7 37.0
e 259 128 49.0
e 259 149 2.0
e 259 221 9.0
e 259 301 23.0
e 259 205 23.0
e 260 243 8.0
e 261 16 18.0
e 262 186 1.0
e 263 261 1.0
e 264 211 5.0
e 265 229 1.0
e 266 67 2.0
e 267 302 46.0
e 267 63 18.0
e 267 86 43.0
e 267 157 16.0
e 267 151 13.0
e 267 252 7.0
e 267 163 24.0
e 267 108 23.0
e 267 89 47.0
e 267 16 39.0
e 267 226 27.0
e 267 292 4.0
e 267 269 22.0
e 267 161 46.0
e 267 94 18.0
e 267 160 29.0
e 267 156 38.0
e 267 306 12.0
e 267 187 36.0
e 267 121 30.0
e 267 7 41.0
e 267 172 11.0
e 267 24 49.0
e 267 218 24.0
e 268 180 30.0
e 268 173 21.0
e 268 207 5.0
e 268 225 33.0
e 268 305 13.0
e 268 64 27.0
e 268 315 43.0
e 268 126 48.0
e 268 23 28.0
e 268 132 20.0
e 268 165 29.0
e 268 280 25.0
e 268 142 13.0
e 268 163 27.0
e 268 150 34.0
e 268 46 45.0
e 268 275 13.0
e 268 177 12.0
e 268 184 44.0
e 268 318 8.0
e 268 149 43.0
e 269 295 1.0
e 270 259 21.0
e 271 52 17.0
e 272 282 2.0
e 273 145 1.0
e 274 95 1.0
e 275 89 40.0
e 276 270 1.0
e 277 5 19.0
e 277 82 48.0
e 277 286 30.0
e 277 29 9.0
e 277 221 38.0
e 277 58 20.0
e 277 216 31.0
e 277 85 29.0
e 277 168 21.0
e 277 4 13.0
e 277 230 16.0
e 277 235 17.0
e 277 246 34.0
e 277 42 36.0
e 277 43 34.0
e 277 287 33.0
e 277 118 42.0
e 277 144 43.0
e 277 7 20.0
e 277 240 48.0
e 278 87 1.0
e 279 259 4.0
e 280 241 3.0
e 280 196 14.0
e 280 152 2.0
e 280 317 41.0
e 280 212 41.0
e 280 150 47.0
e 280 296 25.0
e 280 238 16.0
e 280 264 21.0
e 280 183 5.0
e 280 168 8.0
e 280 318 25.0
e 280 232 8.0
e 280 194 16.0
e 280 7 9.0
e 280 46 32.0
e 280 98 31.0
e 280 237 49.0
e 280 291 11.0
e 280 302 1.0
e 280 298 3.0
e 280 240 29.0
e 280 72 18.0
e 281 116 15.0
e 281 293 13.0
e 281 99 36.0
e 281 58 22.0
e 281 184 29.0
e 281 287 7.0
e 281 72 44.0
e 281 207 10.0
e 281 56 18.0
e 281 197 6.0
e 281 231 27.0
e 281 156 43.0
e 281 120 34.0
e 281 57 35.0
e 281 250 24.0
e 281 22 31.0
e 281 130 38.0
e 281 247 22.0
e 281 52 13.0
e 281 14 31.0
e 281 196 17.0
e 281 18 38.0
e 281 30 31.0
e 281 37 44.0
e 282 165 2.0
e 283 92 1.0
e 284 279 2.0
e 285 17 1.0
e 286 276 5.0
e 287 101 1.0
e 288 137 1.0
e 289 118 1.0
e 290 139 1.0
e 291 243 8.0
e 291 102 35.0
e 291 153 46.0
e 291 183 10.0
e 291 32 34.0
e 291 145 41.0
e 291 292 47.0
e 291 225 6.0
e 291 39 41.0
e 291 103 22.0
e 291 171 41.0
e 291 267 24.0
e 291 8 25.0
e 291 154 13.0
e 291 97 36.0
e 291 9 13.0
e 291 226 26.0
e 291 156 36.0
e 291 302 13.0
e 291 88 14.0
e 292 5 25.0
e 292 273 20.0
e 292 8 28.0
e 292 106 31.0
e 292 244 23.0
e 292 14 15.0
e 292 109 34.0
e 292 183 47.0
e 292 170 22.0
e 292 127 7.0
e 292 164 12.0
e 292 24 37.0
e 292 280 18.0
e 292 18 46.0
e 292 123 5.0
e 292 303 5.0
e 292 193 18.0
e 292 216 7.0
e 292 287 18.0
e 293 288 22.0
e 293 0 41.0
e 293 267 30.0
e 293 272 42.0
e 293 179 19.0
e 293 268 8.0
e 293 157 23.0
e 293 200 48.0
e 293 178 24.0
e 293 300 43.0
e 293 44 46.0
e 293 105 39.0
e 293 184 45.0
e 293 219 33.0
e 293 173 49.0
e 293 290 11.0
e 293 130 7.0
e 293 57 10.0
e 293 58 10.0
e 293 193 41.0
e 293 216 7.0
e 293 62 18.0
e 294 122 2.0
e 295 171 3.0
e 296 247 1.0
e 297 96 1.0
e 298 233 23.0
e 298 247 30.0
e 298 134 19.0
e 298 123 43.0
e 298 272 49.0
e 298 248 33.0
e 298 261 1.0
e 298 118 28.0
e 298 25 28.0
e 298 217 40.0
e 298 262 36.0
e 298 246 42.0
e 298 79 41.0
e 298 249 8.0
e 298 227 46.0
e 298 8 49.0
e 298 28 17.0
e 298 300 22.0
e 298 319 43.0
e 298 26 14.0
e 298 74 40.0
e 298 181 31.0
e 298 75 13.0
e 299 230 1.0
e 300 191 1.0
e 301 119 2.0
e 302 83 23.0
e 302 303 39.0
e 302 178 23.0
e 302 103 48.0
e 302 297 18.0
e 302 205 47.0
e 302 233 8.0
e 302 80 28.0
e 302 214 14.0
e 302 185 5.0
e 302 20 48.0
e 302 19 29.0
e 302 45 40.0
e 302 301 35.0
e 302 8 23.0
e 302 276 39.0
e 302 315 33.0
e 302 236 6.0
e 302 304 28.0
e 302 218 37.0
e 302 107 36.0
e 302 124 48.0
e 303 195 1.0
e 304 46 1.0
e 305 96 45.0
e 305 271 33.0
e 305 146 6.0
e 305 261 34.0
e 305 27 7.0
e 305 19 47.0
e 305 53 9.0
e 305 247 32.0
e 305 9 4.0
e 305 118 36.0
e 305 250 23.0
e 305 193 40.0
e 305 59 7.0
e 305 303 14.0
e 305 160 29.0
e 305 84 39.0
e 305 47 43.0
e 305 197 36.0
e 305 77 47.0
e 305 42 43.0
e 305 201 19.0
e 305 213 28.0
e 306 220 1.0
e 307 192 1.0
e 308 210 3.0
e 309 131 1.0
e 310 66 49.0
e 310 232 41.0
e 310 106 15.0
e 310 157 25.0
e 310 100 15.0
e 310 56 46.0
e 310 234 11.0
e 310 175 11.0
e 310 303 18.0
e 310 101 30.0
e 310 136 14.0
e 310 20 20.0
e 310 293 35.0
e 310 277 46.0
e 310 207 46.0
e 310 271 46.0
e 310 259 25.0
e 310 168 18.0
e 310 169 27.0
e 310 135 30.0
e 310 79 44.0
e 310 134 5.0
e 311 164 1.0
e 312 184 1.0
e 313 296 1.0
e 314 92 2.0
e 315 291 41.0
e 316 178 1.0
e 317 223 1.0
e 318 162 2.0
e 319 179 1.0
